c description: Random 3-CNF over 15 variables and 95 clauses
c generator: CNFgen (0.9.0)
c copyright: (C) 2012-2020 Massimo Lauria <massimo.lauria@uniroma1.it>
c url: https://massimolauria.net/cnfgen
c
p cnf 15 95
1 -9 -13 0
1 -4 -15 0
-7 11 14 0
-4 -5 -9 0
1 11 -14 0
1 -3 6 0
10 -11 12 0
-1 -5 -14 0
7 -8 13 0
-5 -10 -13 0
-2 -5 -7 0
-4 5 -14 0
-4 -9 -13 0
5 -11 -13 0
3 6 12 0
7 -8 10 0
-2 -13 15 0
-5 6 15 0
5 8 -9 0
4 9 -10 0
7 9 14 0
5 9 15 0
-4 -13 -15 0
1 3 -7 0
-2 -5 14 0
1 -3 -4 0
4 6 8 0
1 13 14 0
5 -7 -15 0
-4 12 13 0
-5 8 -11 0
5 10 14 0
8 -11 13 0
5 -10 13 0
-1 10 -11 0
4 -8 -14 0
-4 -5 -10 0
5 -12 13 0
3 -5 -8 0
3 -11 12 0
-2 -13 14 0
-10 -11 15 0
-1 -8 15 0
-4 -12 -14 0
6 -10 -12 0
1 9 -12 0
-3 14 15 0
-10 12 15 0
2 -4 -12 0
8 -12 -15 0
-5 -7 -9 0
-1 -12 14 0
-12 13 14 0
-6 11 15 0
1 -8 -9 0
6 -12 -13 0
2 -10 -15 0
3 -4 12 0
-1 -6 13 0
-8 9 -13 0
-10 12 14 0
6 -9 -14 0
-6 -8 13 0
1 -2 -12 0
10 -13 15 0
2 -8 10 0
6 -7 -12 0
9 10 -11 0
6 -9 -15 0
-1 -5 -12 0
-5 9 -15 0
4 12 13 0
3 -12 15 0
2 -4 5 0
12 -14 -15 0
3 6 15 0
5 7 -9 0
1 2 5 0
3 -9 -12 0
-4 -7 11 0
6 -11 -13 0
1 -2 -14 0
-3 7 12 0
-1 2 -10 0
1 3 -14 0
4 -12 -14 0
5 -9 -15 0
2 -6 9 0
6 -9 -10 0
6 8 -9 0
-6 -11 -12 0
-2 11 13 0
-2 8 -14 0
6 -10 -11 0
-8 -9 -11 0